COMUNI = {
	perugia,
	citta_di_castello,
	umbertide,
};

NUMERO_COMUNI = 3;

ABITANTI_PER_COMUNE = [161, 38, 16];

STRADE_TRA_COMUNI = [|
	false, false, true |
	false, false, true |
	true, true, false |
|];

RICHIESTE = [|
	36, 84, 21, 21, 235 |
	50, 96, 94, 11, 83 |
	13, 50, 152, 45, 0 |
|];
